
Gurobi 7.5.2 (win64) logging started 01/29/18 14:19:15

Academic license - for non-commercial use only

Gurobi 7.5.2 (win64) logging started 01/29/18 14:23:03

Academic license - for non-commercial use only

Gurobi 7.5.2 (win64) logging started 01/29/18 14:24:48

Academic license - for non-commercial use only
Warning for adding variables: zero or small (< 1e-13) coefficients, ignored

Gurobi 7.5.2 (win64) logging started 01/29/18 15:00:05

Academic license - for non-commercial use only

Gurobi 7.5.2 (win64) logging started 01/29/18 15:00:47

Academic license - for non-commercial use only

Gurobi 7.5.2 (win64) logging started 01/29/18 15:02:23

Academic license - for non-commercial use only

Gurobi 7.5.2 (win64) logging started 01/29/18 15:02:32

Academic license - for non-commercial use only

Gurobi 7.5.2 (win64) logging started 01/29/18 15:03:06

Academic license - for non-commercial use only

Gurobi 7.5.2 (win64) logging started 01/29/18 15:03:16

Academic license - for non-commercial use only

Gurobi 7.5.2 (win64) logging started 01/29/18 15:03:24

Academic license - for non-commercial use only

Gurobi 7.5.2 (win64) logging started 01/29/18 15:03:40

Academic license - for non-commercial use only

Gurobi 7.5.2 (win64) logging started 01/29/18 15:04:01

Academic license - for non-commercial use only

Gurobi 7.5.2 (win64) logging started 01/29/18 15:04:21

Academic license - for non-commercial use only

Gurobi 7.5.2 (win64) logging started 01/29/18 17:10:32

Academic license - for non-commercial use only

Gurobi 7.5.2 (win64) logging started 01/29/18 17:11:11

Academic license - for non-commercial use only

Gurobi 7.5.2 (win64) logging started 01/29/18 17:31:43

Academic license - for non-commercial use only

Gurobi 7.5.2 (win64) logging started 01/29/18 17:52:17

Academic license - for non-commercial use only

Gurobi 7.5.2 (win64) logging started 01/29/18 17:56:32

Academic license - for non-commercial use only

Gurobi 7.5.2 (win64) logging started 01/29/18 18:01:10

Academic license - for non-commercial use only
